words_hard_train/7526.qaiger
aag 106 30 0 1 76
2
4
12
14
24
26
34
36
44
46
58
60
72
74
96
98
114
116
126
128
140
142
156
158
178
180
184
192
194
198
212
6 2 5
8 3 4
10 7 9
16 13 15
18 11 16
20 10 17
22 19 21
28 25 27
30 24 26
32 29 31
38 34 36
40 32 38
42 41 31
48 45 47
50 44 46
52 49 51
54 43 52
56 55 51
62 59 61
64 58 60
66 63 65
68 57 66
70 69 65
76 73 75
78 72 74
80 77 79
82 71 80
84 83 79
86 22 85
88 23 84
90 87 89
92 70 81
94 93 83
100 97 99
102 95 100
104 94 101
106 103 105
108 90 107
110 56 67
112 111 69
118 115 117
120 113 119
122 42 53
124 123 55
130 127 129
132 125 131
134 121 133
136 35 37
138 137 39
144 141 143
146 138 144
148 139 145
150 147 149
152 33 39
154 153 41
160 157 159
162 155 161
164 150 163
166 134 164
168 112 118
170 154 160
172 124 130
174 171 173
176 169 174
182 179 181
186 183 184
188 182 185
190 187 189
196 193 195
200 196 198
202 197 199
204 201 203
206 191 204
208 176 206
210 166 208
212 108 210
i0 2 y2[7]
i1 1 x1[5]
i2 1 x2[7]
i3 2 y1[7]
i4 2 y2[3]
i5 1 x1[1]
i6 2 y2[2]
i7 1 x1[0]
i8 2 y2[4]
i9 1 x1[2]
i10 2 y2[5]
i11 1 x1[3]
i12 2 y2[6]
i13 1 x1[4]
i14 1 x2[6]
i15 2 y1[6]
i16 1 x2[5]
i17 2 y1[5]
i18 1 x2[4]
i19 2 y1[4]
i20 1 x2[2]
i21 2 y1[2]
i22 1 x2[3]
i23 2 y1[3]
i24 1 x2[0]
i25 2 y1[0]
i26 2 y2[0]
i27 1 x2[1]
i28 2 y1[1]
i29 2 y2[1]
o0 bool[0]
c
simplified
  ==
    or
      2 y1
      1 x2
    add
      2 y2
      << 2
        1 x1
