words_hard_train/7526.qaiger.qdimacs
p cnf 106 229
a 89 96 2 37 6 70 13 78 48 18 23 57 30 63 0
e 1 3 4 5 7 8 9 10 11 12 14 15 16 17 19 20 21 22 24 25 26 27 28 29 31 32 33 34 35 36 38 39 40 41 42 43 44 45 46 47 49 50 51 52 53 54 55 56 58 59 60 61 62 64 65 66 67 68 69 71 72 73 74 75 76 77 79 80 81 82 83 84 85 86 87 88 90 91 92 93 94 95 97 98 99 100 101 102 103 104 105 106 0
-1 2 3 0
1 -3 0
-2 -3 0
1 -2 4 0
-1 -4 0
2 -4 0
3 4 5 0
-3 -5 0
-4 -5 0
6 7 8 0
-6 -8 0
-7 -8 0
5 -8 9 0
-5 -9 0
8 -9 0
-5 8 10 0
5 -10 0
-8 -10 0
9 10 11 0
-9 -11 0
-10 -11 0
12 13 14 0
-12 -14 0
-13 -14 0
-12 -13 15 0
12 -15 0
13 -15 0
14 15 16 0
-14 -16 0
-15 -16 0
-17 -18 19 0
17 -19 0
18 -19 0
-16 -19 20 0
16 -20 0
19 -20 0
20 15 21 0
-20 -21 0
-15 -21 0
22 23 24 0
-22 -24 0
-23 -24 0
-22 -23 25 0
22 -25 0
23 -25 0
24 25 26 0
-24 -26 0
-25 -26 0
21 -26 27 0
-21 -27 0
26 -27 0
27 25 28 0
-27 -28 0
-25 -28 0
29 30 31 0
-29 -31 0
-30 -31 0
-29 -30 32 0
29 -32 0
30 -32 0
31 32 33 0
-31 -33 0
-32 -33 0
28 -33 34 0
-28 -34 0
33 -34 0
34 32 35 0
-34 -35 0
-32 -35 0
36 37 38 0
-36 -38 0
-37 -38 0
-36 -37 39 0
36 -39 0
37 -39 0
38 39 40 0
-38 -40 0
-39 -40 0
35 -40 41 0
-35 -41 0
40 -41 0
41 39 42 0
-41 -42 0
-39 -42 0
-11 42 43 0
11 -43 0
-42 -43 0
11 -42 44 0
-11 -44 0
42 -44 0
43 44 45 0
-43 -45 0
-44 -45 0
-35 40 46 0
35 -46 0
-40 -46 0
46 41 47 0
-46 -47 0
-41 -47 0
48 49 50 0
-48 -50 0
-49 -50 0
47 -50 51 0
-47 -51 0
50 -51 0
-47 50 52 0
47 -52 0
-50 -52 0
51 52 53 0
-51 -53 0
-52 -53 0
-45 53 54 0
45 -54 0
-53 -54 0
-28 33 55 0
28 -55 0
-33 -55 0
55 34 56 0
-55 -56 0
-34 -56 0
57 58 59 0
-57 -59 0
-58 -59 0
56 59 60 0
-56 -60 0
-59 -60 0
-21 26 61 0
21 -61 0
-26 -61 0
61 27 62 0
-61 -62 0
-27 -62 0
63 64 65 0
-63 -65 0
-64 -65 0
62 65 66 0
-62 -66 0
-65 -66 0
60 66 67 0
-60 -67 0
-66 -67 0
17 18 68 0
-17 -68 0
-18 -68 0
68 19 69 0
-68 -69 0
-19 -69 0
70 71 72 0
-70 -72 0
-71 -72 0
-69 -72 73 0
69 -73 0
72 -73 0
69 72 74 0
-69 -74 0
-72 -74 0
73 74 75 0
-73 -75 0
-74 -75 0
16 19 76 0
-16 -76 0
-19 -76 0
76 20 77 0
-76 -77 0
-20 -77 0
78 79 80 0
-78 -80 0
-79 -80 0
77 80 81 0
-77 -81 0
-80 -81 0
-75 81 82 0
75 -82 0
-81 -82 0
-67 -82 83 0
67 -83 0
82 -83 0
-56 -59 84 0
56 -84 0
59 -84 0
-77 -80 85 0
77 -85 0
80 -85 0
-62 -65 86 0
62 -86 0
65 -86 0
85 86 87 0
-85 -87 0
-86 -87 0
84 -87 88 0
-84 -88 0
87 -88 0
89 90 91 0
-89 -91 0
-90 -91 0
91 -92 93 0
-91 -93 0
92 -93 0
-91 92 94 0
91 -94 0
-92 -94 0
93 94 95 0
-93 -95 0
-94 -95 0
96 97 98 0
-96 -98 0
-97 -98 0
-98 -99 100 0
98 -100 0
99 -100 0
98 99 101 0
-98 -101 0
-99 -101 0
100 101 102 0
-100 -102 0
-101 -102 0
95 -102 103 0
-95 -103 0
102 -103 0
-88 -103 104 0
88 -104 0
103 -104 0
-83 -104 105 0
83 -105 0
104 -105 0
-54 -105 106 0
54 -106 0
105 -106 0
106 0
